NAME : portcgen-27-5
COMMENT : portcgen N=27, seed=5
TYPE : TSP
DIMENSION : 27
EDGE_WEIGHT_TYPE : EUC_2D
NODE_COORD_SECTION
1 140276 16013
2 59508 -15244
3 28359 42896
4 -207526 269573
5 -220396 29009
6 17716 -34541
7 130979 167272
8 177787 189963
9 31448 -205414
10 196970 8727
11 20952 -140241
12 111544 173140
13 -92230 320084
14 -45008 155366
15 -65265 71119
16 366415 242739
17 -194488 175382
18 -81289 321157
19 272345 37995
20 67268 59547
21 -74252 157566
22 40788 -20229
23 89752 233057
24 -156764 -67705
25 -121238 -94172
26 173015 326319
27 -150118 42038
